db/data/14116117182170559912037385192619318402.z3.out
-------------------
2500.233160296
